(declare-const a Real)
(declare-const b Real)
(declare-const c Real)
(assert (= (* a b c) 1))
(assert (> a 0))
(assert (> b 0))
(assert (> c 0))
(assert (not (<= (+ (* -922640384 (pow b 4)) (* -711876608 (pow a 4)) (* (pow (+ 1109952 (* 3150872576 a (pow b 3))) -3) (pow (+ (* 2219904 a) (* 2219904 b) (* 3150872576 a (pow b 3))) 4)) (* -1811939328 (pow a (pow 3 -1)) (pow b (/ 11 3))) (* -905969664 (pow a (/ 10 3)) (pow b (/ 2 3))) (* 917405696 b (pow a 3))) 0)))
(check-sat)
(get-model)
(exit)